#This is the atom file containing all the information
#about the lattice structure.

ATOMIC_SPECIES
 Mo  95.94    Mo_ONCV_PBE-1.0.upf
 S   32.066    S_ONCV_PBE-1.0.upf

LATTICE_CONSTANT
6.0136075029356135  #1.889726164

LATTICE_PARAMETERS
5.97059204 #c/a

ATOMIC_POSITIONS
Cartesian_angstrom 	#Cartesian(Unit is LATTICE_CONSTANT)
Mo 			#Name of element	
0.0			#Magnetic for this element.
1			#Number of atoms
1.59113   0.91864  9.205022498736776 0 0 0
S
0.0
2
0.000000000  0.000000000  11.046026998484132 0 0 0
0.000000000  0.000000000  7.364017998989421 0 0 0
