ATOMIC_SPECIES
Mo	95.96	Mo_ONCV_PBE-1.0.upf
S	32.065	S_ONCV_PBE-1.0.upf

NUMERICAL_ORBITAL
Mo_gga_7au_100Ry_4s2p2d1f.orb
S_gga_7au_100Ry_2s2p1d.orb

LATTICE_CONSTANT
1.0

LATTICE_VECTORS
11.489535000 0.0000000000 0.0000000000
-5.744768000 9.9502290000 0.0000000000
0.0000000000 0.0000000000 68.975005000

ATOMIC_POSITIONS
Direct

Mo
0
8
0.3333330000 0.1666670000 0.0445210000 1 1 1 mag 0.0
0.8333330000 0.1666670000 0.0445210000 1 1 1 mag 0.0
0.3333330000 0.6666670000 0.0445210000 1 1 1 mag 0.0
0.8333330000 0.6666670000 0.0445210000 1 1 1 mag 0.0
0.3333330000 0.1666670000 0.5445210000 1 1 1 mag 0.0
0.8333330000 0.1666670000 0.5445210000 1 1 1 mag 0.0
0.3333330000 0.6666670000 0.5445210000 1 1 1 mag 0.0
0.8333330000 0.6666670000 0.5445210000 1 1 1 mag 0.0

S
0
16
0.0002860000 0.0000000000 0.0002860000 1 1 1 mag 0.0
0.5000000000 0.0000000000 0.0000000000 1 1 1 mag 0.0
-0.000000000 0.5000000000 0.0000000000 1 1 1 mag 0.0
0.5000000000 0.5000000000 0.0000000000 1 1 1 mag 0.0
0.0000000000 0.0000000000 0.5000000000 1 1 1 mag 0.0
0.5000000000 0.0000000000 0.5000000000 1 1 1 mag 0.0
-0.000000000 0.5000000000 0.5000000000 1 1 1 mag 0.0
0.5000000000 0.5000000000 0.5000000000 1 1 1 mag 0.0
0.0000000000 0.0000000000 0.0890410000 1 1 1 mag 0.0
0.5000000000 0.0000000000 0.0890410000 1 1 1 mag 0.0
-0.000000000 0.5000000000 0.0890410000 1 1 1 mag 0.0
0.5000000000 0.5000000000 0.0890410000 1 1 1 mag 0.0
0.0000000000 0.0000000000 0.5890410000 1 1 1 mag 0.0
0.5000000000 0.0000000000 0.5890410000 1 1 1 mag 0.0
-0.000000000 0.5000000000 0.5890410000 1 1 1 mag 0.0
0.5000000000 0.5000000000 0.5890410000 1 1 1 mag 0.0
